1000
[101,105,109,111,114,116,117,121,124,128,132,134,139,140,142,145,149,150,151,152,153,154,158,159,160,163,166,167,168,170,173,176,181,183,184,186,187,190,191,192,195,198,199,200,201,203,205,207,208,210,211,214,220,221,222,223,224,225,226,228,229,231,232,234,235,236,237,239,240,241,242,244,245,247,249,250,251,253,254,256,257,258,260,264,265,266,267,270,271,275,276,277,280,281,282,283,286,289,293,295,297,300,303,304,305,306,307,308,309,310,311,316,317,321,326,327,328,333,334,336,337,340,343,352,355,357,359,360,361,362,364,365,377,381,382,386,391,392,393,394,402,403,404,405,407,412,421,426,433,434,435,439,440,441,447,449,450,452,458,463,465,466,470,472,473,474,477,482,487,488,491,492,493,495,496,500,502,503,504,506,510,511,513,515,516,518,523,525,533,534,539,540,548,550,551,554,557,559,560,561,564,566,568,572,575,581,582,584,585,589,592,593,594,596,597,598,601,602,604,606,609,610,614,618,619,622,624,625,627,628,632,634,638,641,642,644,647,649,652,653,658,659,662,664,666,667,669,670,673,674,675,676,677,678,681,688,690,693,695,698,699,700,701,704,705,708,709,710,711,713,714,718,719,726,728,731,735,736,737,738,745,752,753,754,759,762,763,764,765,767,771,773,775,778,783,784,786,787,798,799,800]
[2,1,1,1,1,1,1,2,2,1,1,1,1,2,1,1,1,1,1,2,1,1,1,1,1,1,1,1,2,2,1,2,3,1,1,1,2,2,1,1,1,1,1,2,1,1,2,1,2,2,1,1,1,1,1,2,1,1,1,2,1,3,2,1,1,1,1,2,1,1,2,1,1,2,1,2,2,1,1,1,2,3,1,2,2,1,2,2,1,2,1,3,1,1,1,1,1,1,1,2,1,1,2,1,1,1,1,2,1,1,1,1,1,1,2,2,1,1,2,1,1,2,1,1,1,1,2,1,1,2,1,1,2,3,3,1,1,2,1,2,1,1,2,1,1,1,2,1,1,1,1,1,1,1,1,2,2,1,1,1,1,3,3,1,1,1,2,2,1,1,1,1,1,1,1,1,2,1,1,1,2,1,1,2,2,1,2,1,3,2,1,1,2,1,1,1,2,1,2,1,2,1,1,2,1,2,2,1,1,1,2,1,1,1,1,1,1,1,1,1,1,1,1,1,4,1,1,1,1,1,1,1,1,1,2,2,1,1,2,1,1,1,1,1,3,1,1,1,1,1,1,1,1,1,1,1,1,2,1,1,1,1,2,1,1,1,2,3,1,1,2,1,1,1,2,1,1,1,1,1,1,1,1,2,1,1,3,1,1,1,2,2,1,1,1,2,1,1,1,1,1]
